3 40 1 10
13 9 16 19 7 9 3 19 8 1 16 11 10 7 1 8 14 9 6 17 11 14 9 17 4 19 8 7 6 7 11 8 3 20 20 18 17 9 15 11 
2.01 6.15 7.63 7.21 7.79 3.84 0.94 6.29 2.02 1.29 1.06 1.45 2.35 5.49 6.33 1.66 7.87 6.98 4.25 1.88 3.37 3 5.94 1.71 6.9 6.74 4.09 5.25 3.92 6.76 3.24 1.9 3.52 0.25 3.5 4.5 0.93 1.44 7.48 6.5 
4 4 4 4 4 4 4 4 4 4 4 4 4 4 4 4 4 4 4 4 4 4 4 4 4 4 4 4 4 4 4 4 4 4 4 4 4 4 4 4 
4.16 3.2 5.51 0.83 3.63 6.38 6.24 4.23 1.79 7.96 6.77 5.59 7.67 0.91 1.04 2.04 3.5 0.99 0.33 2.64 6.21 4.74 4.18 3.66 0.26 6.72 7.25 2.66 7.39 0.38 2.24 4.04 5.92 4.51 0.59 6.1 5.24 6.19 2.51 0.42 
1 1 1 1 1 1 1 1 1 1 1 1 1 1 1 1 1 1 1 1 1 1 1 1 1 1 1 1 1 1 1 1 1 1 1 1 1 1 1 1 
1 1 1 1 1 1 1 1 1 1 1 1 1 1 1 1 1 1 1 1 1 1 1 1 1 1 1 1 1 1 1 1 1 1 1 1 1 1 1 1 
1 1 1 1 1 1 1 1 1 1 1 1 1 1 1 1 1 1 1 1 1 1 1 1 1 1 1 1 1 1 1 1 1 1 1 1 1 1 1 1 
0.01 0.01 0.01 0.01 0.01 0.01 0.01 0.01 0.01 0.01 0.01 0.01 0.01 0.01 0.01 0.01 0.01 0.01 0.01 0.01 0.01 0.01 0.01 0.01 0.01 0.01 0.01 0.01 0.01 0.01 0.01 0.01 0.01 0.01 0.01 0.01 0.01 0.01 0.01 0.01 
0.02 0.02 0.02 0.02 0.02 0.02 0.02 0.02 0.02 0.02 0.02 0.02 0.02 0.02 0.02 0.02 0.02 0.02 0.02 0.02 0.02 0.02 0.02 0.02 0.02 0.02 0.02 0.02 0.02 0.02 0.02 0.02 0.02 0.02 0.02 0.02 0.02 0.02 0.02 0.02 
1 1 1 1 1 1 1 1 1 1 1 1 1 1 1 1 1 1 1 1 1 1 1 1 1 1 1 1 1 1 1 1 1 1 1 1 1 1 1 1 
